param Riesgos:=
0[1]	3		5	
1[1]
2[1]	5		6	
3[1]
4[1]
5[1]	2		4		5	
6[1]	6	
7[1]	4	
8[1]	5		6	
9[1]
10[1]	4		6	
11[1]
12[1]	2		3		5	
13[1]	2		4		5	
14[1]	1		3		5	
0[2]	3		6	
1[2]	3	
2[2]
3[2]
0[3]	1	
1[3]	2	
2[3]	3		4		5	
3[3]	5		6	
4[3]
5[3]	1		6	
6[3]
7[3]	1		5		6	
8[3]	5	
9[3]	1		5	
10[3]
